qbf_easy_train/easy_27_SAT.qdimacs
p cnf 29 80
a 16 13 0
e 1 2 3 4 5 6 7 8 9 10 11 12 14 15 17 18 19 20 21 22 23 24 25 26 27 28 29 0
3 -1 0
3 2 0
1 -2 -3 0
3 -2 -4 0
-3 2 -4 0
3 2 4 0
-3 -2 4 0
-5 -1 -6 0
5 1 -6 0
-5 1 6 0
5 -1 6 0
-7 6 0
-7 -2 0
-6 2 7 0
8 7 0
8 2 0
-7 -2 -8 0
-7 9 -10 0
7 -9 -10 0
-7 -9 10 0
7 9 10 0
-11 -3 0
-11 10 0
3 -10 11 0
-12 8 0
-12 -11 0
-8 11 12 0
-14 12 0
-14 -13 0
-12 13 14 0
-16 11 -17 0
16 -11 -17 0
-16 -11 17 0
16 11 17 0
15 17 -18 0
-15 -17 -18 0
15 -17 18 0
-15 17 18 0
-19 14 0
-19 18 0
-14 -18 19 0
-4 -19 -20 0
4 19 -20 0
-4 19 20 0
4 -19 20 0
-2 -15 -21 0
2 15 -21 0
-2 15 21 0
2 -15 21 0
3 -15 -22 0
-3 15 -22 0
3 15 22 0
-3 -15 22 0
24 23 0
24 -9 0
-23 9 -24 0
-16 9 -25 0
16 -9 -25 0
-16 -9 25 0
16 9 25 0
26 -24 0
26 -25 0
24 25 -26 0
27 -22 0
27 -26 0
22 26 -27 0
28 21 0
28 -27 0
-21 27 -28 0
29 20 0
29 28 0
-20 -28 -29 0
-21 9 24 5 0
-24 -21 6 -13 0
-16 -14 -22 13 -20 2 27 0
27 -19 -4 18 0
26 15 -28 5 -3 0
3 -6 11 -21 2 26 0
-23 16 -26 0
29 0
