sat_easy_train/easy_27_SAT.dimacs
p cnf 117 384
1 -2 -3 0
-1 2 -3 0
1 2 3 0
-1 -2 3 0
-5 1 0
-5 4 0
-1 -4 5 0
-3 -5 -6 0
3 5 -6 0
-3 5 6 0
3 -5 6 0
7 -8 -9 0
-7 8 -9 0
7 8 9 0
-7 -8 9 0
-12 -10 0
-12 -11 0
10 11 12 0
-13 -12 0
-13 -2 0
12 2 13 0
14 -9 0
14 -13 0
9 13 -14 0
16 -14 0
16 15 0
14 -15 -16 0
-6 16 -17 0
6 -16 -17 0
-6 -16 17 0
6 16 17 0
20 -18 0
20 19 0
18 -19 -20 0
-23 -21 0
-23 22 0
21 -22 23 0
-23 7 -24 0
23 -7 -24 0
-23 -7 24 0
23 7 24 0
-25 -22 0
-25 2 0
22 -2 25 0
-11 -25 -26 0
11 25 -26 0
-11 25 26 0
11 -25 26 0
-27 24 0
-27 -26 0
-24 26 27 0
-25 -1 -28 0
25 1 -28 0
-25 1 28 0
25 -1 28 0
29 27 0
29 -28 0
-27 28 -29 0
-29 21 -30 0
29 -21 -30 0
-29 -21 30 0
29 21 30 0
5 -3 -31 0
-5 3 -31 0
5 3 31 0
-5 -3 31 0
-30 -31 -32 0
30 31 -32 0
-30 31 32 0
30 -31 32 0
-33 -7 0
-33 -32 0
7 32 33 0
34 -33 0
34 -32 0
33 32 -34 0
35 -20 0
35 34 0
20 -34 -35 0
37 -36 0
37 15 0
36 -15 -37 0
-38 -1 0
-38 18 0
1 -18 38 0
-39 37 0
-39 38 0
-37 -38 39 0
40 16 0
40 -33 0
-16 33 -40 0
-41 -40 0
-41 36 0
40 -36 41 0
-42 39 0
-42 -41 0
-39 41 42 0
35 42 -43 0
-35 -42 -43 0
35 -42 43 0
-35 42 43 0
-17 43 -44 0
17 -43 -44 0
-17 -43 44 0
17 43 44 0
-45 13 0
-45 38 0
-13 -38 45 0
46 44 0
46 -45 0
-44 45 -46 0
-47 -10 0
-47 -30 0
10 30 47 0
-48 -2 0
-48 1 0
2 -1 48 0
49 47 0
49 48 0
-47 -48 -49 0
30 40 -50 0
-30 -40 -50 0
30 -40 50 0
-30 40 50 0
51 19 0
51 -4 0
-19 4 -51 0
52 -51 0
52 -37 0
51 37 -52 0
54 -52 0
54 53 0
52 -53 -54 0
50 -54 -55 0
-50 54 -55 0
50 54 55 0
-50 -54 55 0
-56 -1 0
-56 -19 0
1 19 56 0
57 56 0
57 -18 0
-56 18 -57 0
-58 -24 0
-58 10 0
24 -10 58 0
59 -57 0
59 58 0
57 -58 -59 0
-60 15 0
-60 -59 0
-15 59 60 0
-28 -61 0
28 -61 0
-62 61 0
-62 -16 0
-61 16 62 0
23 -7 -63 0
-23 7 -63 0
23 7 63 0
-23 -7 63 0
-64 -63 0
-64 51 0
63 -51 64 0
65 64 0
65 -31 0
-64 31 -65 0
-66 62 0
-66 -65 0
-62 65 66 0
67 60 0
67 66 0
-60 -66 -67 0
-68 -55 0
-68 -67 0
55 67 68 0
69 -13 0
69 -3 0
13 3 -69 0
70 -68 0
70 69 0
68 -69 -70 0
-71 7 0
-71 2 0
-7 -2 71 0
-30 -5 -72 0
30 5 -72 0
-30 5 72 0
30 -5 72 0
72 -73 -74 0
-72 73 -74 0
72 73 74 0
-72 -73 74 0
-72 -13 -75 0
72 13 -75 0
-72 13 75 0
72 -13 75 0
76 -13 0
76 56 0
13 -56 -76 0
-77 -14 0
-77 76 0
14 -76 77 0
-78 -4 0
-78 -61 0
4 61 78 0
79 30 0
79 -78 0
-30 78 -79 0
-80 77 0
-80 79 0
-77 -79 80 0
-81 -75 0
-81 80 0
75 -80 81 0
-25 56 -82 0
25 -56 -82 0
-25 -56 82 0
25 56 82 0
-11 82 -83 0
11 -82 -83 0
-11 -82 83 0
11 82 83 0
-84 10 0
-84 12 0
-10 -12 84 0
-83 -84 -85 0
83 84 -85 0
-83 84 85 0
83 -84 85 0
-86 -26 -87 0
86 26 -87 0
-86 26 87 0
86 -26 87 0
88 -85 0
88 -87 0
85 87 -88 0
89 -81 0
89 -88 0
81 88 -89 0
-74 -89 -90 0
74 89 -90 0
-74 89 90 0
74 -89 90 0
71 -90 -91 0
-71 90 -91 0
71 90 91 0
-71 -90 91 0
92 70 0
92 -91 0
-70 91 -92 0
-93 -49 0
-93 92 0
49 -92 93 0
94 -46 0
94 -93 0
46 93 -94 0
95 12 0
95 3 0
-12 -3 -95 0
96 14 0
96 31 0
-14 -31 -96 0
-97 5 0
-97 -29 0
-5 29 97 0
98 -96 0
98 97 0
96 -97 -98 0
-99 95 0
-99 -98 0
-95 98 99 0
100 -94 0
100 99 0
94 -99 -100 0
-101 -56 0
-101 21 0
56 -21 101 0
-102 101 0
-102 28 0
-101 -28 102 0
21 102 -103 0
-21 -102 -103 0
21 -102 103 0
-21 102 103 0
-104 30 0
-104 11 0
-30 -11 104 0
105 5 0
105 104 0
-5 -104 -105 0
-102 -32 -106 0
102 32 -106 0
-102 32 106 0
102 -32 106 0
-106 -51 -107 0
106 51 -107 0
-106 51 107 0
106 -51 107 0
105 107 -108 0
-105 -107 -108 0
105 -107 108 0
-105 107 108 0
109 22 0
109 40 0
-22 -40 -109 0
110 -61 0
110 30 0
61 -30 -110 0
111 104 0
111 -51 0
-104 51 -111 0
112 86 0
112 111 0
-86 -111 -112 0
113 -110 0
113 112 0
110 -112 -113 0
109 -113 -114 0
-109 113 -114 0
109 113 114 0
-109 -113 114 0
115 108 0
115 114 0
-108 -114 -115 0
103 -115 -116 0
-103 115 -116 0
103 115 116 0
-103 -115 116 0
100 -116 -117 0
-100 116 -117 0
100 116 117 0
-100 -116 117 0
75 109 0
113 -60 0
74 -35 -86 0
-61 37 0
94 -2 31 -97 75 105 0
-79 -26 -36 -81 4 71 0
-107 -58 0
29 -28 -70 0
97 -93 67 0
46 75 70 71 -17 0
-92 -95 -116 22 -65 0
69 96 103 34 0
61 -24 75 51 0
89 48 1 0
77 -29 84 -11 0
64 89 -100 -5 0
113 -73 0
53 23 -73 -39 109 108 0
35 38 -25 31 -50 66 0
108 27 74 87 0
65 20 40 -100 83 112 0
-114 -105 -55 -14 88 0
-60 16 -19 65 0
8 5 -14 115 -89 54 0
57 67 27 31 96 0
63 73 0
-54 55 0
4 56 -58 -55 0
54 -67 102 103 0
98 57 1 0
22 36 105 -27 -19 -51 0
57 -80 -25 7 0
-14 69 -107 -9 62 0
-39 -31 0
-72 -99 0
-102 -29 21 17 0
48 17 31 -69 -22 0
-45 -111 29 36 -12 -78 0
73 109 0
-114 -45 0
21 109 -20 25 97 0
10 81 0
103 34 -85 -86 0
-83 64 -56 104 -9 0
57 -14 0
111 71 40 115 -105 -82 0
114 50 0
100 20 0
-80 42 57 92 0
-116 -66 -115 0
117 0
